p edge 2809 2744
e 1 2
e 1 3
e 1 4
e 1 5
e 1 6
e 1 7
e 1 8
e 1 9
e 1 10
e 1 11
e 1 12
e 1 13
e 1 14
e 1 15
e 1 16
e 1 17
e 1 18
e 1 19
e 1 20
e 1 21
e 1 22
e 1 23
e 24 25
e 24 26
e 24 27
e 24 28
e 24 29
e 24 30
e 24 31
e 24 32
e 24 33
e 24 34
e 24 35
e 24 36
e 24 37
e 24 38
e 24 39
e 24 40
e 24 41
e 24 42
e 24 43
e 24 44
e 24 45
e 24 46
e 24 47
e 24 48
e 24 49
e 24 50
e 24 51
e 24 52
e 24 53
e 24 54
e 24 55
e 24 56
e 24 57
e 24 58
e 24 59
e 24 60
e 24 61
e 24 62
e 24 63
e 24 64
e 24 65
e 24 66
e 24 67
e 24 68
e 24 69
e 24 70
e 24 71
e 24 72
e 73 74
e 73 75
e 73 76
e 73 77
e 73 78
e 73 79
e 73 80
e 73 81
e 73 82
e 73 83
e 73 84
e 73 85
e 73 86
e 73 87
e 73 88
e 73 89
e 73 90
e 73 91
e 73 92
e 73 93
e 73 94
e 73 95
e 73 96
e 73 97
e 73 98
e 73 99
e 73 100
e 73 101
e 73 102
e 73 103
e 73 104
e 73 105
e 73 106
e 73 107
e 73 108
e 73 109
e 73 110
e 73 111
e 73 112
e 73 113
e 73 114
e 73 115
e 73 116
e 73 117
e 73 118
e 73 119
e 73 120
e 73 121
e 73 122
e 73 123
e 73 124
e 125 126
e 125 127
e 125 128
e 125 129
e 125 130
e 125 131
e 125 132
e 125 133
e 125 134
e 125 135
e 125 136
e 125 137
e 125 138
e 125 139
e 125 140
e 125 141
e 125 142
e 125 143
e 125 144
e 125 145
e 125 146
e 125 147
e 125 148
e 125 149
e 125 150
e 125 151
e 125 152
e 125 153
e 125 154
e 125 155
e 125 156
e 125 157
e 125 158
e 125 159
e 125 160
e 125 161
e 125 162
e 125 163
e 164 165
e 164 166
e 164 167
e 164 168
e 164 169
e 164 170
e 164 171
e 164 172
e 164 173
e 164 174
e 164 175
e 164 176
e 164 177
e 164 178
e 164 179
e 164 180
e 164 181
e 182 183
e 182 184
e 182 185
e 182 186
e 182 187
e 182 188
e 182 189
e 182 190
e 182 191
e 182 192
e 182 193
e 182 194
e 182 195
e 182 196
e 182 197
e 182 198
e 182 199
e 182 200
e 182 201
e 182 202
e 182 203
e 182 204
e 182 205
e 182 206
e 182 207
e 182 208
e 182 209
e 182 210
e 182 211
e 182 212
e 182 213
e 182 214
e 182 215
e 182 216
e 182 217
e 182 218
e 182 219
e 182 220
e 182 221
e 182 222
e 182 223
e 182 224
e 182 225
e 182 226
e 182 227
e 182 228
e 182 229
e 182 230
e 231 232
e 231 233
e 231 234
e 231 235
e 231 236
e 231 237
e 231 238
e 231 239
e 231 240
e 231 241
e 231 242
e 231 243
e 231 244
e 231 245
e 231 246
e 231 247
e 231 248
e 231 249
e 231 250
e 231 251
e 231 252
e 231 253
e 231 254
e 231 255
e 231 256
e 231 257
e 231 258
e 231 259
e 231 260
e 231 261
e 231 262
e 231 263
e 231 264
e 231 265
e 231 266
e 231 267
e 231 268
e 231 269
e 231 270
e 231 271
e 231 272
e 273 274
e 273 275
e 273 276
e 273 277
e 273 278
e 273 279
e 273 280
e 273 281
e 273 282
e 273 283
e 273 284
e 273 285
e 273 286
e 273 287
e 273 288
e 273 289
e 273 290
e 273 291
e 273 292
e 273 293
e 294 295
e 294 296
e 294 297
e 294 298
e 294 299
e 294 300
e 294 301
e 294 302
e 294 303
e 294 304
e 294 305
e 294 306
e 294 307
e 294 308
e 294 309
e 294 310
e 294 311
e 294 312
e 294 313
e 294 314
e 294 315
e 294 316
e 294 317
e 294 318
e 294 319
e 294 320
e 294 321
e 294 322
e 294 323
e 294 324
e 294 325
e 294 326
e 294 327
e 294 328
e 294 329
e 294 330
e 294 331
e 294 332
e 294 333
e 294 334
e 294 335
e 294 336
e 294 337
e 294 338
e 294 339
e 294 340
e 294 341
e 294 342
e 294 343
e 294 344
e 294 345
e 294 346
e 294 347
e 294 348
e 294 349
e 294 350
e 294 351
e 294 352
e 294 353
e 294 354
e 294 355
e 294 356
e 357 358
e 357 359
e 357 360
e 357 361
e 357 362
e 357 363
e 357 364
e 357 365
e 357 366
e 357 367
e 357 368
e 357 369
e 357 370
e 357 371
e 357 372
e 357 373
e 357 374
e 357 375
e 357 376
e 357 377
e 357 378
e 357 379
e 357 380
e 357 381
e 357 382
e 357 383
e 357 384
e 357 385
e 357 386
e 357 387
e 357 388
e 357 389
e 357 390
e 357 391
e 357 392
e 357 393
e 357 394
e 357 395
e 357 396
e 397 398
e 397 399
e 397 400
e 397 401
e 397 402
e 397 403
e 397 404
e 397 405
e 397 406
e 397 407
e 397 408
e 397 409
e 397 410
e 397 411
e 397 412
e 397 413
e 397 414
e 397 415
e 397 416
e 397 417
e 397 418
e 397 419
e 397 420
e 397 421
e 397 422
e 397 423
e 397 424
e 397 425
e 397 426
e 397 427
e 397 428
e 397 429
e 397 430
e 397 431
e 397 432
e 397 433
e 397 434
e 397 435
e 397 436
e 397 437
e 397 438
e 397 439
e 397 440
e 397 441
e 397 442
e 397 443
e 397 444
e 397 445
e 397 446
e 397 447
e 397 448
e 397 449
e 397 450
e 397 451
e 397 452
e 397 453
e 397 454
e 397 455
e 397 456
e 397 457
e 397 458
e 397 459
e 397 460
e 397 461
e 397 462
e 463 464
e 463 465
e 463 466
e 463 467
e 463 468
e 463 469
e 463 470
e 463 471
e 463 472
e 463 473
e 463 474
e 463 475
e 463 476
e 463 477
e 463 478
e 463 479
e 463 480
e 463 481
e 463 482
e 463 483
e 463 484
e 463 485
e 463 486
e 463 487
e 463 488
e 463 489
e 463 490
e 463 491
e 463 492
e 463 493
e 463 494
e 463 495
e 463 496
e 463 497
e 463 498
e 463 499
e 463 500
e 463 501
e 463 502
e 463 503
e 463 504
e 463 505
e 463 506
e 463 507
e 463 508
e 463 509
e 463 510
e 463 511
e 463 512
e 463 513
e 463 514
e 463 515
e 463 516
e 463 517
e 463 518
e 463 519
e 463 520
e 463 521
e 522 523
e 522 524
e 522 525
e 522 526
e 522 527
e 522 528
e 522 529
e 522 530
e 522 531
e 522 532
e 522 533
e 522 534
e 522 535
e 522 536
e 522 537
e 522 538
e 522 539
e 522 540
e 522 541
e 522 542
e 522 543
e 522 544
e 522 545
e 522 546
e 522 547
e 522 548
e 522 549
e 522 550
e 522 551
e 522 552
e 522 553
e 522 554
e 522 555
e 522 556
e 522 557
e 522 558
e 522 559
e 522 560
e 522 561
e 522 562
e 522 563
e 522 564
e 522 565
e 522 566
e 522 567
e 522 568
e 522 569
e 522 570
e 522 571
e 572 573
e 572 574
e 572 575
e 572 576
e 572 577
e 572 578
e 572 579
e 572 580
e 572 581
e 572 582
e 572 583
e 572 584
e 572 585
e 572 586
e 572 587
e 572 588
e 572 589
e 572 590
e 572 591
e 572 592
e 572 593
e 572 594
e 572 595
e 572 596
e 572 597
e 572 598
e 572 599
e 572 600
e 572 601
e 572 602
e 572 603
e 572 604
e 572 605
e 572 606
e 572 607
e 572 608
e 572 609
e 572 610
e 611 612
e 611 613
e 611 614
e 611 615
e 611 616
e 611 617
e 611 618
e 611 619
e 611 620
e 611 621
e 611 622
e 611 623
e 611 624
e 611 625
e 611 626
e 611 627
e 611 628
e 611 629
e 611 630
e 611 631
e 611 632
e 611 633
e 611 634
e 611 635
e 611 636
e 611 637
e 611 638
e 611 639
e 611 640
e 611 641
e 611 642
e 611 643
e 611 644
e 611 645
e 611 646
e 611 647
e 611 648
e 611 649
e 611 650
e 611 651
e 611 652
e 611 653
e 654 655
e 654 656
e 654 657
e 654 658
e 654 659
e 654 660
e 654 661
e 654 662
e 654 663
e 654 664
e 654 665
e 654 666
e 654 667
e 654 668
e 654 669
e 654 670
e 654 671
e 654 672
e 654 673
e 654 674
e 654 675
e 654 676
e 654 677
e 654 678
e 654 679
e 654 680
e 654 681
e 654 682
e 654 683
e 654 684
e 654 685
e 654 686
e 654 687
e 654 688
e 654 689
e 654 690
e 654 691
e 654 692
e 654 693
e 654 694
e 654 695
e 696 697
e 696 698
e 696 699
e 696 700
e 696 701
e 696 702
e 696 703
e 696 704
e 696 705
e 696 706
e 696 707
e 696 708
e 696 709
e 696 710
e 696 711
e 696 712
e 696 713
e 696 714
e 696 715
e 696 716
e 696 717
e 696 718
e 696 719
e 696 720
e 696 721
e 696 722
e 696 723
e 696 724
e 696 725
e 696 726
e 696 727
e 696 728
e 696 729
e 696 730
e 696 731
e 696 732
e 696 733
e 696 734
e 696 735
e 696 736
e 696 737
e 696 738
e 696 739
e 696 740
e 696 741
e 696 742
e 696 743
e 696 744
e 696 745
e 696 746
e 696 747
e 696 748
e 696 749
e 696 750
e 696 751
e 696 752
e 696 753
e 696 754
e 696 755
e 696 756
e 696 757
e 696 758
e 759 760
e 759 761
e 759 762
e 759 763
e 759 764
e 759 765
e 759 766
e 759 767
e 759 768
e 759 769
e 759 770
e 759 771
e 759 772
e 759 773
e 759 774
e 759 775
e 759 776
e 759 777
e 759 778
e 759 779
e 759 780
e 759 781
e 759 782
e 759 783
e 759 784
e 759 785
e 759 786
e 759 787
e 759 788
e 759 789
e 759 790
e 759 791
e 759 792
e 759 793
e 759 794
e 759 795
e 759 796
e 759 797
e 759 798
e 759 799
e 759 800
e 759 801
e 759 802
e 759 803
e 759 804
e 759 805
e 806 807
e 806 808
e 806 809
e 806 810
e 806 811
e 806 812
e 806 813
e 806 814
e 806 815
e 806 816
e 806 817
e 806 818
e 806 819
e 806 820
e 806 821
e 806 822
e 806 823
e 806 824
e 806 825
e 806 826
e 806 827
e 806 828
e 806 829
e 806 830
e 806 831
e 806 832
e 806 833
e 806 834
e 806 835
e 806 836
e 806 837
e 806 838
e 806 839
e 806 840
e 806 841
e 806 842
e 806 843
e 806 844
e 806 845
e 806 846
e 806 847
e 806 848
e 806 849
e 806 850
e 806 851
e 806 852
e 806 853
e 806 854
e 806 855
e 806 856
e 806 857
e 806 858
e 806 859
e 806 860
e 806 861
e 806 862
e 806 863
e 806 864
e 806 865
e 806 866
e 806 867
e 806 868
e 806 869
e 806 870
e 871 872
e 871 873
e 871 874
e 871 875
e 871 876
e 871 877
e 871 878
e 871 879
e 871 880
e 871 881
e 871 882
e 871 883
e 871 884
e 871 885
e 871 886
e 871 887
e 871 888
e 871 889
e 871 890
e 871 891
e 871 892
e 871 893
e 871 894
e 871 895
e 871 896
e 871 897
e 871 898
e 871 899
e 871 900
e 871 901
e 871 902
e 871 903
e 871 904
e 871 905
e 871 906
e 871 907
e 871 908
e 871 909
e 871 910
e 871 911
e 871 912
e 871 913
e 871 914
e 871 915
e 871 916
e 871 917
e 871 918
e 871 919
e 871 920
e 871 921
e 871 922
e 871 923
e 871 924
e 871 925
e 871 926
e 871 927
e 871 928
e 871 929
e 871 930
e 871 931
e 871 932
e 871 933
e 871 934
e 935 936
e 935 937
e 935 938
e 935 939
e 935 940
e 935 941
e 935 942
e 935 943
e 935 944
e 935 945
e 935 946
e 947 948
e 947 949
e 947 950
e 947 951
e 947 952
e 947 953
e 947 954
e 947 955
e 947 956
e 947 957
e 947 958
e 947 959
e 947 960
e 947 961
e 947 962
e 947 963
e 947 964
e 947 965
e 947 966
e 947 967
e 947 968
e 947 969
e 947 970
e 947 971
e 947 972
e 947 973
e 947 974
e 947 975
e 947 976
e 947 977
e 947 978
e 947 979
e 947 980
e 947 981
e 947 982
e 947 983
e 947 984
e 947 985
e 947 986
e 947 987
e 947 988
e 947 989
e 947 990
e 947 991
e 947 992
e 947 993
e 947 994
e 947 995
e 947 996
e 947 997
e 947 998
e 947 999
e 947 1000
e 947 1001
e 947 1002
e 947 1003
e 947 1004
e 947 1005
e 947 1006
e 947 1007
e 947 1008
e 947 1009
e 947 1010
e 947 1011
e 947 1012
e 947 1013
e 1014 1015
e 1014 1016
e 1014 1017
e 1014 1018
e 1014 1019
e 1014 1020
e 1014 1021
e 1014 1022
e 1014 1023
e 1014 1024
e 1014 1025
e 1014 1026
e 1014 1027
e 1014 1028
e 1014 1029
e 1014 1030
e 1014 1031
e 1014 1032
e 1014 1033
e 1014 1034
e 1014 1035
e 1014 1036
e 1014 1037
e 1014 1038
e 1014 1039
e 1014 1040
e 1014 1041
e 1014 1042
e 1014 1043
e 1014 1044
e 1014 1045
e 1014 1046
e 1014 1047
e 1014 1048
e 1014 1049
e 1014 1050
e 1014 1051
e 1014 1052
e 1014 1053
e 1014 1054
e 1014 1055
e 1014 1056
e 1014 1057
e 1014 1058
e 1014 1059
e 1014 1060
e 1014 1061
e 1014 1062
e 1014 1063
e 1014 1064
e 1014 1065
e 1014 1066
e 1014 1067
e 1014 1068
e 1014 1069
e 1014 1070
e 1014 1071
e 1014 1072
e 1014 1073
e 1014 1074
e 1014 1075
e 1014 1076
e 1014 1077
e 1014 1078
e 1014 1079
e 1014 1080
e 1014 1081
e 1082 1083
e 1082 1084
e 1082 1085
e 1082 1086
e 1082 1087
e 1082 1088
e 1082 1089
e 1082 1090
e 1082 1091
e 1082 1092
e 1082 1093
e 1082 1094
e 1082 1095
e 1082 1096
e 1082 1097
e 1082 1098
e 1082 1099
e 1082 1100
e 1082 1101
e 1082 1102
e 1082 1103
e 1082 1104
e 1082 1105
e 1082 1106
e 1082 1107
e 1082 1108
e 1082 1109
e 1082 1110
e 1082 1111
e 1082 1112
e 1082 1113
e 1082 1114
e 1082 1115
e 1082 1116
e 1082 1117
e 1082 1118
e 1082 1119
e 1082 1120
e 1082 1121
e 1082 1122
e 1082 1123
e 1082 1124
e 1082 1125
e 1082 1126
e 1082 1127
e 1082 1128
e 1082 1129
e 1082 1130
e 1082 1131
e 1082 1132
e 1082 1133
e 1082 1134
e 1082 1135
e 1082 1136
e 1082 1137
e 1082 1138
e 1082 1139
e 1082 1140
e 1082 1141
e 1082 1142
e 1082 1143
e 1082 1144
e 1082 1145
e 1082 1146
e 1082 1147
e 1148 1149
e 1148 1150
e 1148 1151
e 1148 1152
e 1148 1153
e 1148 1154
e 1148 1155
e 1148 1156
e 1148 1157
e 1148 1158
e 1148 1159
e 1148 1160
e 1148 1161
e 1148 1162
e 1148 1163
e 1148 1164
e 1148 1165
e 1148 1166
e 1148 1167
e 1148 1168
e 1148 1169
e 1148 1170
e 1148 1171
e 1148 1172
e 1148 1173
e 1148 1174
e 1148 1175
e 1148 1176
e 1148 1177
e 1148 1178
e 1148 1179
e 1148 1180
e 1148 1181
e 1148 1182
e 1148 1183
e 1148 1184
e 1148 1185
e 1148 1186
e 1148 1187
e 1148 1188
e 1148 1189
e 1148 1190
e 1148 1191
e 1148 1192
e 1148 1193
e 1148 1194
e 1195 1196
e 1195 1197
e 1195 1198
e 1195 1199
e 1195 1200
e 1195 1201
e 1195 1202
e 1195 1203
e 1195 1204
e 1195 1205
e 1195 1206
e 1195 1207
e 1195 1208
e 1195 1209
e 1195 1210
e 1195 1211
e 1195 1212
e 1195 1213
e 1195 1214
e 1195 1215
e 1195 1216
e 1195 1217
e 1195 1218
e 1195 1219
e 1195 1220
e 1221 1222
e 1221 1223
e 1221 1224
e 1221 1225
e 1221 1226
e 1221 1227
e 1221 1228
e 1221 1229
e 1221 1230
e 1221 1231
e 1221 1232
e 1221 1233
e 1221 1234
e 1221 1235
e 1221 1236
e 1221 1237
e 1221 1238
e 1221 1239
e 1221 1240
e 1221 1241
e 1221 1242
e 1221 1243
e 1221 1244
e 1221 1245
e 1221 1246
e 1247 1248
e 1247 1249
e 1247 1250
e 1247 1251
e 1247 1252
e 1247 1253
e 1247 1254
e 1247 1255
e 1247 1256
e 1247 1257
e 1247 1258
e 1247 1259
e 1247 1260
e 1247 1261
e 1247 1262
e 1247 1263
e 1247 1264
e 1247 1265
e 1247 1266
e 1247 1267
e 1247 1268
e 1247 1269
e 1247 1270
e 1247 1271
e 1247 1272
e 1247 1273
e 1247 1274
e 1247 1275
e 1247 1276
e 1247 1277
e 1247 1278
e 1247 1279
e 1247 1280
e 1247 1281
e 1247 1282
e 1247 1283
e 1247 1284
e 1247 1285
e 1247 1286
e 1247 1287
e 1247 1288
e 1247 1289
e 1247 1290
e 1247 1291
e 1247 1292
e 1247 1293
e 1247 1294
e 1247 1295
e 1247 1296
e 1247 1297
e 1247 1298
e 1247 1299
e 1247 1300
e 1247 1301
e 1247 1302
e 1303 1304
e 1303 1305
e 1303 1306
e 1303 1307
e 1303 1308
e 1303 1309
e 1303 1310
e 1303 1311
e 1303 1312
e 1303 1313
e 1303 1314
e 1303 1315
e 1303 1316
e 1303 1317
e 1303 1318
e 1303 1319
e 1303 1320
e 1303 1321
e 1303 1322
e 1303 1323
e 1324 1325
e 1324 1326
e 1324 1327
e 1324 1328
e 1324 1329
e 1324 1330
e 1324 1331
e 1324 1332
e 1324 1333
e 1324 1334
e 1324 1335
e 1324 1336
e 1324 1337
e 1324 1338
e 1324 1339
e 1324 1340
e 1324 1341
e 1324 1342
e 1324 1343
e 1324 1344
e 1324 1345
e 1324 1346
e 1324 1347
e 1324 1348
e 1324 1349
e 1324 1350
e 1324 1351
e 1324 1352
e 1324 1353
e 1324 1354
e 1324 1355
e 1324 1356
e 1324 1357
e 1324 1358
e 1324 1359
e 1324 1360
e 1324 1361
e 1324 1362
e 1324 1363
e 1324 1364
e 1324 1365
e 1324 1366
e 1324 1367
e 1368 1369
e 1368 1370
e 1368 1371
e 1368 1372
e 1368 1373
e 1368 1374
e 1368 1375
e 1368 1376
e 1368 1377
e 1368 1378
e 1368 1379
e 1368 1380
e 1368 1381
e 1368 1382
e 1368 1383
e 1368 1384
e 1368 1385
e 1368 1386
e 1368 1387
e 1368 1388
e 1368 1389
e 1368 1390
e 1368 1391
e 1368 1392
e 1368 1393
e 1368 1394
e 1368 1395
e 1368 1396
e 1368 1397
e 1368 1398
e 1368 1399
e 1368 1400
e 1368 1401
e 1368 1402
e 1368 1403
e 1368 1404
e 1368 1405
e 1368 1406
e 1368 1407
e 1368 1408
e 1368 1409
e 1368 1410
e 1368 1411
e 1368 1412
e 1368 1413
e 1368 1414
e 1368 1415
e 1368 1416
e 1368 1417
e 1368 1418
e 1368 1419
e 1368 1420
e 1368 1421
e 1368 1422
e 1368 1423
e 1368 1424
e 1368 1425
e 1368 1426
e 1368 1427
e 1368 1428
e 1368 1429
e 1368 1430
e 1368 1431
e 1368 1432
e 1368 1433
e 1368 1434
e 1368 1435
e 1436 1437
e 1436 1438
e 1436 1439
e 1436 1440
e 1436 1441
e 1436 1442
e 1436 1443
e 1436 1444
e 1436 1445
e 1436 1446
e 1436 1447
e 1436 1448
e 1436 1449
e 1436 1450
e 1436 1451
e 1436 1452
e 1436 1453
e 1436 1454
e 1436 1455
e 1436 1456
e 1436 1457
e 1436 1458
e 1436 1459
e 1436 1460
e 1436 1461
e 1436 1462
e 1436 1463
e 1436 1464
e 1465 1466
e 1465 1467
e 1465 1468
e 1465 1469
e 1465 1470
e 1465 1471
e 1465 1472
e 1465 1473
e 1465 1474
e 1465 1475
e 1465 1476
e 1465 1477
e 1465 1478
e 1465 1479
e 1465 1480
e 1465 1481
e 1465 1482
e 1465 1483
e 1465 1484
e 1465 1485
e 1465 1486
e 1465 1487
e 1465 1488
e 1465 1489
e 1465 1490
e 1465 1491
e 1465 1492
e 1493 1494
e 1493 1495
e 1493 1496
e 1493 1497
e 1493 1498
e 1493 1499
e 1493 1500
e 1493 1501
e 1493 1502
e 1493 1503
e 1493 1504
e 1493 1505
e 1493 1506
e 1493 1507
e 1493 1508
e 1493 1509
e 1493 1510
e 1493 1511
e 1493 1512
e 1493 1513
e 1493 1514
e 1493 1515
e 1493 1516
e 1493 1517
e 1493 1518
e 1493 1519
e 1493 1520
e 1493 1521
e 1493 1522
e 1523 1524
e 1523 1525
e 1523 1526
e 1523 1527
e 1523 1528
e 1523 1529
e 1523 1530
e 1523 1531
e 1523 1532
e 1523 1533
e 1523 1534
e 1523 1535
e 1523 1536
e 1523 1537
e 1523 1538
e 1523 1539
e 1523 1540
e 1523 1541
e 1523 1542
e 1543 1544
e 1543 1545
e 1543 1546
e 1543 1547
e 1543 1548
e 1543 1549
e 1543 1550
e 1543 1551
e 1543 1552
e 1543 1553
e 1543 1554
e 1543 1555
e 1543 1556
e 1543 1557
e 1543 1558
e 1543 1559
e 1543 1560
e 1543 1561
e 1543 1562
e 1543 1563
e 1543 1564
e 1543 1565
e 1543 1566
e 1543 1567
e 1543 1568
e 1543 1569
e 1543 1570
e 1543 1571
e 1543 1572
e 1543 1573
e 1543 1574
e 1543 1575
e 1543 1576
e 1543 1577
e 1543 1578
e 1543 1579
e 1543 1580
e 1543 1581
e 1543 1582
e 1543 1583
e 1543 1584
e 1543 1585
e 1543 1586
e 1543 1587
e 1543 1588
e 1543 1589
e 1543 1590
e 1543 1591
e 1592 1593
e 1592 1594
e 1592 1595
e 1592 1596
e 1592 1597
e 1592 1598
e 1592 1599
e 1592 1600
e 1592 1601
e 1592 1602
e 1592 1603
e 1592 1604
e 1592 1605
e 1592 1606
e 1592 1607
e 1592 1608
e 1592 1609
e 1592 1610
e 1592 1611
e 1592 1612
e 1592 1613
e 1592 1614
e 1592 1615
e 1592 1616
e 1592 1617
e 1592 1618
e 1592 1619
e 1592 1620
e 1592 1621
e 1592 1622
e 1592 1623
e 1592 1624
e 1592 1625
e 1592 1626
e 1592 1627
e 1592 1628
e 1592 1629
e 1592 1630
e 1592 1631
e 1592 1632
e 1592 1633
e 1592 1634
e 1592 1635
e 1592 1636
e 1592 1637
e 1592 1638
e 1592 1639
e 1592 1640
e 1592 1641
e 1592 1642
e 1592 1643
e 1644 1645
e 1644 1646
e 1644 1647
e 1644 1648
e 1644 1649
e 1644 1650
e 1644 1651
e 1644 1652
e 1644 1653
e 1644 1654
e 1644 1655
e 1644 1656
e 1644 1657
e 1644 1658
e 1644 1659
e 1644 1660
e 1644 1661
e 1644 1662
e 1644 1663
e 1644 1664
e 1644 1665
e 1644 1666
e 1644 1667
e 1644 1668
e 1644 1669
e 1644 1670
e 1644 1671
e 1644 1672
e 1644 1673
e 1644 1674
e 1675 1676
e 1675 1677
e 1675 1678
e 1675 1679
e 1675 1680
e 1675 1681
e 1675 1682
e 1675 1683
e 1675 1684
e 1675 1685
e 1675 1686
e 1675 1687
e 1675 1688
e 1675 1689
e 1675 1690
e 1675 1691
e 1675 1692
e 1675 1693
e 1675 1694
e 1675 1695
e 1675 1696
e 1675 1697
e 1675 1698
e 1675 1699
e 1675 1700
e 1675 1701
e 1675 1702
e 1675 1703
e 1675 1704
e 1675 1705
e 1675 1706
e 1675 1707
e 1675 1708
e 1675 1709
e 1675 1710
e 1675 1711
e 1675 1712
e 1675 1713
e 1675 1714
e 1675 1715
e 1675 1716
e 1675 1717
e 1675 1718
e 1675 1719
e 1675 1720
e 1675 1721
e 1675 1722
e 1675 1723
e 1675 1724
e 1675 1725
e 1675 1726
e 1675 1727
e 1675 1728
e 1675 1729
e 1675 1730
e 1675 1731
e 1675 1732
e 1675 1733
e 1675 1734
e 1675 1735
e 1675 1736
e 1675 1737
e 1675 1738
e 1675 1739
e 1675 1740
e 1675 1741
e 1675 1742
e 1675 1743
e 1675 1744
e 1745 1746
e 1745 1747
e 1745 1748
e 1745 1749
e 1745 1750
e 1745 1751
e 1745 1752
e 1745 1753
e 1745 1754
e 1745 1755
e 1745 1756
e 1745 1757
e 1745 1758
e 1745 1759
e 1745 1760
e 1745 1761
e 1745 1762
e 1745 1763
e 1745 1764
e 1745 1765
e 1745 1766
e 1745 1767
e 1745 1768
e 1745 1769
e 1745 1770
e 1745 1771
e 1745 1772
e 1745 1773
e 1745 1774
e 1745 1775
e 1745 1776
e 1745 1777
e 1745 1778
e 1745 1779
e 1745 1780
e 1745 1781
e 1745 1782
e 1745 1783
e 1745 1784
e 1785 1786
e 1785 1787
e 1785 1788
e 1785 1789
e 1785 1790
e 1785 1791
e 1785 1792
e 1785 1793
e 1785 1794
e 1785 1795
e 1796 1797
e 1796 1798
e 1796 1799
e 1796 1800
e 1796 1801
e 1796 1802
e 1796 1803
e 1796 1804
e 1796 1805
e 1796 1806
e 1796 1807
e 1796 1808
e 1796 1809
e 1796 1810
e 1796 1811
e 1796 1812
e 1796 1813
e 1796 1814
e 1796 1815
e 1796 1816
e 1796 1817
e 1796 1818
e 1796 1819
e 1796 1820
e 1796 1821
e 1796 1822
e 1796 1823
e 1796 1824
e 1796 1825
e 1796 1826
e 1796 1827
e 1796 1828
e 1796 1829
e 1796 1830
e 1796 1831
e 1796 1832
e 1796 1833
e 1796 1834
e 1796 1835
e 1796 1836
e 1796 1837
e 1796 1838
e 1796 1839
e 1796 1840
e 1796 1841
e 1796 1842
e 1796 1843
e 1796 1844
e 1796 1845
e 1796 1846
e 1796 1847
e 1796 1848
e 1796 1849
e 1796 1850
e 1796 1851
e 1796 1852
e 1796 1853
e 1796 1854
e 1796 1855
e 1796 1856
e 1796 1857
e 1796 1858
e 1796 1859
e 1796 1860
e 1796 1861
e 1796 1862
e 1796 1863
e 1796 1864
e 1796 1865
e 1866 1867
e 1866 1868
e 1866 1869
e 1866 1870
e 1866 1871
e 1866 1872
e 1866 1873
e 1866 1874
e 1866 1875
e 1866 1876
e 1866 1877
e 1866 1878
e 1866 1879
e 1866 1880
e 1866 1881
e 1866 1882
e 1866 1883
e 1866 1884
e 1866 1885
e 1866 1886
e 1866 1887
e 1866 1888
e 1866 1889
e 1866 1890
e 1866 1891
e 1866 1892
e 1866 1893
e 1866 1894
e 1866 1895
e 1866 1896
e 1866 1897
e 1866 1898
e 1866 1899
e 1866 1900
e 1866 1901
e 1866 1902
e 1866 1903
e 1866 1904
e 1866 1905
e 1866 1906
e 1866 1907
e 1866 1908
e 1866 1909
e 1866 1910
e 1866 1911
e 1866 1912
e 1866 1913
e 1866 1914
e 1866 1915
e 1866 1916
e 1917 1918
e 1917 1919
e 1917 1920
e 1917 1921
e 1917 1922
e 1917 1923
e 1917 1924
e 1917 1925
e 1917 1926
e 1917 1927
e 1917 1928
e 1917 1929
e 1917 1930
e 1917 1931
e 1917 1932
e 1917 1933
e 1917 1934
e 1917 1935
e 1917 1936
e 1917 1937
e 1917 1938
e 1917 1939
e 1917 1940
e 1917 1941
e 1917 1942
e 1917 1943
e 1917 1944
e 1945 1946
e 1945 1947
e 1945 1948
e 1945 1949
e 1945 1950
e 1945 1951
e 1945 1952
e 1945 1953
e 1945 1954
e 1945 1955
e 1945 1956
e 1945 1957
e 1945 1958
e 1945 1959
e 1945 1960
e 1945 1961
e 1945 1962
e 1945 1963
e 1945 1964
e 1945 1965
e 1945 1966
e 1945 1967
e 1945 1968
e 1945 1969
e 1945 1970
e 1945 1971
e 1945 1972
e 1945 1973
e 1945 1974
e 1945 1975
e 1945 1976
e 1945 1977
e 1945 1978
e 1945 1979
e 1945 1980
e 1945 1981
e 1945 1982
e 1945 1983
e 1945 1984
e 1945 1985
e 1945 1986
e 1945 1987
e 1945 1988
e 1989 1990
e 1989 1991
e 1989 1992
e 1989 1993
e 1989 1994
e 1989 1995
e 1989 1996
e 1989 1997
e 1989 1998
e 1989 1999
e 1989 2000
e 1989 2001
e 1989 2002
e 1989 2003
e 1989 2004
e 1989 2005
e 1989 2006
e 1989 2007
e 1989 2008
e 1989 2009
e 1989 2010
e 1989 2011
e 1989 2012
e 1989 2013
e 1989 2014
e 1989 2015
e 1989 2016
e 1989 2017
e 1989 2018
e 1989 2019
e 1989 2020
e 1989 2021
e 1989 2022
e 1989 2023
e 1989 2024
e 1989 2025
e 1989 2026
e 1989 2027
e 1989 2028
e 1989 2029
e 1989 2030
e 1989 2031
e 1989 2032
e 1989 2033
e 2034 2035
e 2034 2036
e 2034 2037
e 2034 2038
e 2034 2039
e 2034 2040
e 2034 2041
e 2034 2042
e 2034 2043
e 2034 2044
e 2034 2045
e 2034 2046
e 2034 2047
e 2034 2048
e 2034 2049
e 2034 2050
e 2034 2051
e 2034 2052
e 2034 2053
e 2034 2054
e 2034 2055
e 2034 2056
e 2034 2057
e 2034 2058
e 2059 2060
e 2059 2061
e 2059 2062
e 2059 2063
e 2059 2064
e 2059 2065
e 2059 2066
e 2059 2067
e 2059 2068
e 2059 2069
e 2059 2070
e 2059 2071
e 2059 2072
e 2059 2073
e 2059 2074
e 2059 2075
e 2059 2076
e 2059 2077
e 2059 2078
e 2079 2080
e 2079 2081
e 2079 2082
e 2079 2083
e 2079 2084
e 2079 2085
e 2079 2086
e 2079 2087
e 2079 2088
e 2079 2089
e 2079 2090
e 2079 2091
e 2079 2092
e 2079 2093
e 2079 2094
e 2079 2095
e 2079 2096
e 2079 2097
e 2079 2098
e 2079 2099
e 2079 2100
e 2101 2102
e 2101 2103
e 2101 2104
e 2101 2105
e 2101 2106
e 2101 2107
e 2101 2108
e 2101 2109
e 2101 2110
e 2101 2111
e 2101 2112
e 2101 2113
e 2101 2114
e 2101 2115
e 2101 2116
e 2117 2118
e 2117 2119
e 2117 2120
e 2117 2121
e 2117 2122
e 2117 2123
e 2117 2124
e 2117 2125
e 2117 2126
e 2117 2127
e 2117 2128
e 2117 2129
e 2117 2130
e 2117 2131
e 2117 2132
e 2117 2133
e 2117 2134
e 2117 2135
e 2117 2136
e 2117 2137
e 2117 2138
e 2117 2139
e 2117 2140
e 2117 2141
e 2117 2142
e 2117 2143
e 2117 2144
e 2117 2145
e 2117 2146
e 2117 2147
e 2117 2148
e 2117 2149
e 2117 2150
e 2117 2151
e 2117 2152
e 2117 2153
e 2117 2154
e 2117 2155
e 2117 2156
e 2117 2157
e 2117 2158
e 2117 2159
e 2117 2160
e 2117 2161
e 2117 2162
e 2117 2163
e 2117 2164
e 2117 2165
e 2117 2166
e 2117 2167
e 2117 2168
e 2117 2169
e 2117 2170
e 2117 2171
e 2117 2172
e 2117 2173
e 2117 2174
e 2117 2175
e 2117 2176
e 2117 2177
e 2117 2178
e 2117 2179
e 2117 2180
e 2117 2181
e 2117 2182
e 2117 2183
e 2184 2185
e 2184 2186
e 2184 2187
e 2184 2188
e 2184 2189
e 2184 2190
e 2184 2191
e 2184 2192
e 2184 2193
e 2184 2194
e 2184 2195
e 2184 2196
e 2184 2197
e 2184 2198
e 2184 2199
e 2184 2200
e 2184 2201
e 2184 2202
e 2184 2203
e 2184 2204
e 2184 2205
e 2184 2206
e 2184 2207
e 2208 2209
e 2208 2210
e 2208 2211
e 2208 2212
e 2208 2213
e 2208 2214
e 2208 2215
e 2208 2216
e 2208 2217
e 2208 2218
e 2208 2219
e 2208 2220
e 2208 2221
e 2208 2222
e 2208 2223
e 2208 2224
e 2208 2225
e 2208 2226
e 2208 2227
e 2208 2228
e 2208 2229
e 2208 2230
e 2208 2231
e 2208 2232
e 2208 2233
e 2208 2234
e 2208 2235
e 2208 2236
e 2208 2237
e 2208 2238
e 2208 2239
e 2208 2240
e 2208 2241
e 2208 2242
e 2208 2243
e 2208 2244
e 2208 2245
e 2208 2246
e 2208 2247
e 2208 2248
e 2208 2249
e 2208 2250
e 2208 2251
e 2208 2252
e 2208 2253
e 2208 2254
e 2208 2255
e 2208 2256
e 2208 2257
e 2208 2258
e 2208 2259
e 2208 2260
e 2208 2261
e 2208 2262
e 2208 2263
e 2208 2264
e 2208 2265
e 2208 2266
e 2208 2267
e 2208 2268
e 2208 2269
e 2208 2270
e 2208 2271
e 2208 2272
e 2208 2273
e 2208 2274
e 2275 2276
e 2275 2277
e 2275 2278
e 2275 2279
e 2275 2280
e 2275 2281
e 2275 2282
e 2275 2283
e 2275 2284
e 2275 2285
e 2275 2286
e 2275 2287
e 2275 2288
e 2275 2289
e 2275 2290
e 2275 2291
e 2275 2292
e 2275 2293
e 2275 2294
e 2275 2295
e 2275 2296
e 2275 2297
e 2275 2298
e 2275 2299
e 2275 2300
e 2275 2301
e 2275 2302
e 2275 2303
e 2275 2304
e 2275 2305
e 2275 2306
e 2275 2307
e 2275 2308
e 2275 2309
e 2275 2310
e 2275 2311
e 2275 2312
e 2275 2313
e 2275 2314
e 2275 2315
e 2275 2316
e 2275 2317
e 2275 2318
e 2275 2319
e 2275 2320
e 2275 2321
e 2275 2322
e 2275 2323
e 2275 2324
e 2275 2325
e 2275 2326
e 2275 2327
e 2275 2328
e 2275 2329
e 2275 2330
e 2275 2331
e 2275 2332
e 2275 2333
e 2275 2334
e 2275 2335
e 2275 2336
e 2275 2337
e 2275 2338
e 2275 2339
e 2340 2341
e 2340 2342
e 2340 2343
e 2340 2344
e 2340 2345
e 2340 2346
e 2340 2347
e 2340 2348
e 2340 2349
e 2340 2350
e 2340 2351
e 2340 2352
e 2340 2353
e 2340 2354
e 2340 2355
e 2340 2356
e 2340 2357
e 2358 2359
e 2358 2360
e 2358 2361
e 2358 2362
e 2358 2363
e 2358 2364
e 2358 2365
e 2358 2366
e 2358 2367
e 2358 2368
e 2358 2369
e 2358 2370
e 2358 2371
e 2358 2372
e 2358 2373
e 2358 2374
e 2358 2375
e 2358 2376
e 2358 2377
e 2358 2378
e 2358 2379
e 2358 2380
e 2358 2381
e 2358 2382
e 2358 2383
e 2358 2384
e 2358 2385
e 2358 2386
e 2358 2387
e 2358 2388
e 2358 2389
e 2358 2390
e 2391 2392
e 2391 2393
e 2391 2394
e 2391 2395
e 2391 2396
e 2391 2397
e 2391 2398
e 2391 2399
e 2391 2400
e 2391 2401
e 2391 2402
e 2391 2403
e 2391 2404
e 2391 2405
e 2391 2406
e 2391 2407
e 2391 2408
e 2391 2409
e 2391 2410
e 2391 2411
e 2391 2412
e 2391 2413
e 2391 2414
e 2391 2415
e 2391 2416
e 2391 2417
e 2391 2418
e 2391 2419
e 2391 2420
e 2391 2421
e 2391 2422
e 2423 2424
e 2423 2425
e 2423 2426
e 2423 2427
e 2423 2428
e 2423 2429
e 2423 2430
e 2423 2431
e 2423 2432
e 2423 2433
e 2423 2434
e 2423 2435
e 2423 2436
e 2423 2437
e 2438 2439
e 2438 2440
e 2438 2441
e 2438 2442
e 2438 2443
e 2438 2444
e 2438 2445
e 2438 2446
e 2438 2447
e 2438 2448
e 2438 2449
e 2438 2450
e 2438 2451
e 2438 2452
e 2438 2453
e 2438 2454
e 2438 2455
e 2438 2456
e 2438 2457
e 2438 2458
e 2438 2459
e 2438 2460
e 2438 2461
e 2438 2462
e 2438 2463
e 2438 2464
e 2438 2465
e 2438 2466
e 2438 2467
e 2438 2468
e 2438 2469
e 2438 2470
e 2438 2471
e 2438 2472
e 2438 2473
e 2438 2474
e 2438 2475
e 2438 2476
e 2438 2477
e 2438 2478
e 2438 2479
e 2438 2480
e 2438 2481
e 2438 2482
e 2438 2483
e 2438 2484
e 2438 2485
e 2438 2486
e 2438 2487
e 2438 2488
e 2438 2489
e 2438 2490
e 2438 2491
e 2438 2492
e 2438 2493
e 2438 2494
e 2438 2495
e 2438 2496
e 2438 2497
e 2498 2499
e 2498 2500
e 2498 2501
e 2498 2502
e 2498 2503
e 2498 2504
e 2498 2505
e 2498 2506
e 2498 2507
e 2498 2508
e 2498 2509
e 2498 2510
e 2498 2511
e 2498 2512
e 2498 2513
e 2498 2514
e 2498 2515
e 2498 2516
e 2498 2517
e 2498 2518
e 2498 2519
e 2498 2520
e 2498 2521
e 2498 2522
e 2498 2523
e 2498 2524
e 2498 2525
e 2498 2526
e 2498 2527
e 2498 2528
e 2498 2529
e 2498 2530
e 2498 2531
e 2498 2532
e 2498 2533
e 2498 2534
e 2498 2535
e 2498 2536
e 2498 2537
e 2498 2538
e 2498 2539
e 2498 2540
e 2498 2541
e 2498 2542
e 2498 2543
e 2498 2544
e 2498 2545
e 2498 2546
e 2498 2547
e 2498 2548
e 2498 2549
e 2498 2550
e 2498 2551
e 2552 2553
e 2552 2554
e 2552 2555
e 2552 2556
e 2552 2557
e 2552 2558
e 2552 2559
e 2552 2560
e 2552 2561
e 2552 2562
e 2552 2563
e 2552 2564
e 2552 2565
e 2552 2566
e 2552 2567
e 2552 2568
e 2552 2569
e 2552 2570
e 2552 2571
e 2552 2572
e 2552 2573
e 2552 2574
e 2575 2576
e 2575 2577
e 2575 2578
e 2575 2579
e 2575 2580
e 2575 2581
e 2575 2582
e 2575 2583
e 2575 2584
e 2575 2585
e 2575 2586
e 2575 2587
e 2575 2588
e 2575 2589
e 2575 2590
e 2575 2591
e 2575 2592
e 2575 2593
e 2575 2594
e 2575 2595
e 2575 2596
e 2575 2597
e 2575 2598
e 2575 2599
e 2575 2600
e 2575 2601
e 2575 2602
e 2575 2603
e 2575 2604
e 2575 2605
e 2575 2606
e 2575 2607
e 2575 2608
e 2575 2609
e 2575 2610
e 2575 2611
e 2575 2612
e 2575 2613
e 2575 2614
e 2575 2615
e 2575 2616
e 2575 2617
e 2575 2618
e 2575 2619
e 2575 2620
e 2575 2621
e 2575 2622
e 2575 2623
e 2575 2624
e 2575 2625
e 2575 2626
e 2575 2627
e 2575 2628
e 2575 2629
e 2575 2630
e 2631 2632
e 2631 2633
e 2631 2634
e 2631 2635
e 2631 2636
e 2631 2637
e 2631 2638
e 2631 2639
e 2631 2640
e 2631 2641
e 2631 2642
e 2631 2643
e 2631 2644
e 2631 2645
e 2631 2646
e 2631 2647
e 2631 2648
e 2631 2649
e 2631 2650
e 2631 2651
e 2631 2652
e 2631 2653
e 2631 2654
e 2631 2655
e 2631 2656
e 2631 2657
e 2631 2658
e 2631 2659
e 2631 2660
e 2631 2661
e 2631 2662
e 2631 2663
e 2631 2664
e 2631 2665
e 2631 2666
e 2631 2667
e 2631 2668
e 2631 2669
e 2631 2670
e 2631 2671
e 2631 2672
e 2631 2673
e 2631 2674
e 2631 2675
e 2631 2676
e 2631 2677
e 2631 2678
e 2631 2679
e 2631 2680
e 2631 2681
e 2631 2682
e 2631 2683
e 2631 2684
e 2631 2685
e 2631 2686
e 2631 2687
e 2631 2688
e 2631 2689
e 2631 2690
e 2631 2691
e 2631 2692
e 2631 2693
e 2631 2694
e 2631 2695
e 2631 2696
e 2631 2697
e 2631 2698
e 2631 2699
e 2700 2701
e 2700 2702
e 2700 2703
e 2700 2704
e 2700 2705
e 2700 2706
e 2700 2707
e 2700 2708
e 2700 2709
e 2700 2710
e 2700 2711
e 2700 2712
e 2700 2713
e 2700 2714
e 2700 2715
e 2700 2716
e 2700 2717
e 2700 2718
e 2700 2719
e 2700 2720
e 2700 2721
e 2700 2722
e 2700 2723
e 2700 2724
e 2700 2725
e 2700 2726
e 2700 2727
e 2700 2728
e 2700 2729
e 2700 2730
e 2700 2731
e 2700 2732
e 2700 2733
e 2700 2734
e 2700 2735
e 2700 2736
e 2700 2737
e 2700 2738
e 2700 2739
e 2700 2740
e 2700 2741
e 2700 2742
e 2700 2743
e 2700 2744
e 2700 2745
e 2700 2746
e 2700 2747
e 2700 2748
e 2700 2749
e 2750 2751
e 2750 2752
e 2750 2753
e 2750 2754
e 2750 2755
e 2750 2756
e 2750 2757
e 2750 2758
e 2750 2759
e 2750 2760
e 2750 2761
e 2750 2762
e 2750 2763
e 2750 2764
e 2750 2765
e 2750 2766
e 2750 2767
e 2750 2768
e 2750 2769
e 2750 2770
e 2750 2771
e 2750 2772
e 2750 2773
e 2750 2774
e 2750 2775
e 2750 2776
e 2750 2777
e 2750 2778
e 2750 2779
e 2750 2780
e 2750 2781
e 2750 2782
e 2750 2783
e 2750 2784
e 2750 2785
e 2750 2786
e 2750 2787
e 2750 2788
e 2750 2789
e 2750 2790
e 2750 2791
e 2750 2792
e 2750 2793
e 2750 2794
e 2750 2795
e 2750 2796
e 2750 2797
e 2750 2798
e 2750 2799
e 2750 2800
e 2750 2801
e 2750 2802
e 2750 2803
e 2750 2804
e 2750 2805
e 2750 2806
e 2750 2807
e 2750 2808
e 2750 2809
